% seed = 0

mint = 34;
% maxt = 219;

nActs = 92;
dur = [0,3,1,3,2,3,1,3,1,3,2,1,3,5,4,3,1,3,3,2,4,1,4,1,2,5,3,1,2,2,1,2,2,3,3,4,3,1,5,3,4,2,3,2,2,4,1,2,2,2,3,2,1,2,1,2,4,1,4,3,2,2,3,2,4,3,3,3,1,3,2,2,1,4,3,3,2,2,2,3,3,1,4,2,1,2,3,3,1,2,1,0];

nSkills = 12;
sreq = [| 0,0,0,0,0,0,0,0,0,0,0,0,
	| 0,0,0,0,0,0,1,1,0,0,0,1,
	| 0,0,0,0,0,0,1,0,1,1,0,1,
	| 0,1,0,0,0,0,0,0,0,0,0,0,
	| 0,0,0,0,0,1,0,1,1,0,1,0,
	| 1,0,0,0,1,0,0,0,0,0,0,0,
	| 1,0,0,1,0,0,1,0,0,1,0,0,
	| 1,0,0,0,0,0,0,1,1,0,0,0,
	| 0,0,0,0,0,0,0,0,1,0,0,1,
	| 0,0,0,0,0,1,0,0,0,1,0,0,
	| 0,0,0,0,0,1,0,0,1,0,1,0,
	| 0,0,0,0,2,0,0,0,0,2,0,0,
	| 0,0,0,0,1,0,0,0,0,0,0,0,
	| 0,0,0,0,0,0,0,0,0,0,0,1,
	| 0,0,0,0,0,0,0,0,0,0,0,1,
	| 0,0,0,1,0,0,0,0,1,0,1,1,
	| 0,0,0,1,0,0,0,0,0,0,0,0,
	| 0,0,0,0,0,0,0,0,0,0,1,0,
	| 0,0,0,0,0,1,0,0,0,0,1,0,
	| 0,0,0,0,0,0,0,0,1,0,0,0,
	| 0,0,0,0,1,0,1,0,1,0,1,0,
	| 0,0,0,1,0,0,0,0,1,0,0,0,
	| 0,0,0,0,1,0,0,0,0,0,0,0,
	| 0,0,0,0,0,0,0,0,0,2,0,0,
	| 0,0,0,0,0,0,0,0,0,1,0,1,
	| 0,0,0,0,0,0,0,1,1,0,0,0,
	| 0,0,0,0,0,1,1,0,0,0,1,0,
	| 0,0,0,0,0,1,0,0,0,0,0,0,
	| 0,0,0,0,0,0,0,1,1,1,0,1,
	| 0,0,1,0,1,0,0,0,1,0,0,1,
	| 0,0,0,0,0,1,0,0,0,0,0,0,
	| 0,0,0,0,0,1,1,0,1,0,0,0,
	| 0,0,1,0,0,0,1,0,1,0,0,0,
	| 0,0,0,0,0,0,0,1,1,1,0,1,
	| 0,0,0,0,0,0,0,0,1,0,0,0,
	| 0,0,0,0,0,0,0,1,0,0,0,1,
	| 0,0,0,0,0,1,1,1,0,0,0,0,
	| 0,0,0,0,0,0,0,0,1,1,0,1,
	| 0,0,0,0,0,0,0,0,0,0,2,0,
	| 0,0,0,0,1,0,0,0,0,0,0,0,
	| 0,0,0,0,0,0,1,1,1,0,0,0,
	| 1,0,0,0,0,0,0,1,0,0,0,0,
	| 0,0,0,0,0,1,1,0,0,0,0,1,
	| 0,0,0,0,0,0,2,0,1,0,1,0,
	| 0,0,0,0,1,0,0,0,1,0,1,1,
	| 0,0,0,0,1,0,0,0,2,1,0,0,
	| 1,0,0,1,0,0,1,0,0,0,0,1,
	| 0,0,0,1,0,0,0,0,1,0,0,0,
	| 0,0,0,1,0,1,0,1,0,1,0,0,
	| 0,0,0,0,0,1,0,0,1,0,0,0,
	| 0,0,0,0,0,0,0,0,1,0,1,0,
	| 0,0,0,0,0,0,0,0,1,0,0,1,
	| 0,0,0,0,0,0,0,0,0,1,1,0,
	| 0,0,0,1,0,1,0,0,1,0,0,1,
	| 0,0,0,0,0,0,0,0,3,1,0,0,
	| 0,0,0,0,0,1,0,0,0,0,0,0,
	| 0,0,0,1,0,0,0,0,0,0,1,1,
	| 0,0,0,0,1,1,1,0,0,0,1,0,
	| 0,1,0,0,0,1,0,1,0,0,0,0,
	| 0,0,0,1,0,0,0,1,1,0,1,0,
	| 0,0,0,0,0,0,0,0,2,0,1,0,
	| 0,0,0,0,0,1,0,0,0,0,1,1,
	| 0,0,0,0,0,0,1,0,1,1,0,1,
	| 0,0,0,0,1,0,0,2,0,0,0,1,
	| 0,0,0,0,0,1,1,0,1,0,0,1,
	| 0,0,0,0,0,0,0,0,1,0,1,0,
	| 0,0,0,0,0,1,0,0,0,0,0,0,
	| 0,1,0,1,0,0,1,0,0,0,0,1,
	| 0,0,0,0,1,0,0,0,1,1,0,0,
	| 0,0,1,0,0,0,0,1,0,1,0,0,
	| 0,0,0,0,0,0,0,0,0,1,0,0,
	| 0,0,0,0,0,0,1,0,0,1,0,0,
	| 0,0,0,0,0,0,0,1,0,1,0,0,
	| 1,0,0,1,1,0,0,0,0,0,1,0,
	| 0,0,0,0,0,1,0,0,1,1,1,0,
	| 0,0,0,0,1,0,0,0,0,0,0,0,
	| 0,0,0,0,0,0,1,2,0,0,0,0,
	| 0,0,0,0,0,1,0,0,1,0,1,1,
	| 0,0,0,0,0,1,0,1,0,0,0,1,
	| 0,0,0,0,1,0,0,1,1,0,0,1,
	| 0,0,0,0,1,0,0,0,0,0,0,1,
	| 0,0,0,0,0,0,0,0,1,1,0,1,
	| 0,0,0,0,1,1,0,1,1,0,0,0,
	| 0,1,0,0,1,0,0,0,1,0,0,1,
	| 0,0,0,0,0,1,0,0,0,2,0,0,
	| 0,1,0,1,0,0,0,1,0,0,0,0,
	| 0,0,0,0,2,0,0,1,0,0,0,0,
	| 1,0,0,0,0,0,0,1,0,0,0,0,
	| 0,0,0,0,1,0,0,0,0,0,0,0,
	| 0,0,0,0,0,0,0,0,0,1,0,0,
	| 0,0,0,0,0,1,0,0,0,0,1,0,
	| 0,0,0,0,0,0,0,0,0,0,0,0, |];

% SumOfsreq = 240;

nResources = 12;
mastery = [| false,false,false,false,false,false,false,false,true,false,false,false,
	| false,false,false,false,false,false,false,false,false,true,true,true,
	| false,false,false,true,true,true,true,true,true,false,false,false,
	| false,false,false,false,false,false,false,false,false,true,true,true,
	| false,false,false,false,false,false,true,true,true,false,false,false,
	| false,false,false,false,false,false,true,true,true,false,false,true,
	| false,false,false,false,false,false,true,true,true,false,false,false,
	| true,true,true,false,false,false,false,false,false,true,true,true,
	| false,false,false,true,true,true,false,false,false,false,false,false,
	| false,false,false,true,true,true,false,false,false,false,false,false,
	| false,false,false,false,false,false,false,false,false,false,false,true,
	| false,false,false,false,false,true,false,false,false,false,false,false, |];

nPrecs = 166;
pred = [1,1,1,2,2,2,3,3,3,4,4,5,5,5,6,6,6,7,7,7,8,8,8,9,9,10,10,11,11,11,12,12,12,13,13,13,14,14,14,15,16,16,16,17,17,18,18,18,19,19,19,20,21,22,22,22,23,24,25,25,26,27,28,29,29,30,30,31,31,32,32,33,33,33,34,34,34,35,36,37,37,37,38,38,38,39,39,39,40,41,42,42,43,43,44,45,45,45,46,47,47,47,48,48,49,49,50,51,51,52,52,53,53,54,54,55,55,55,56,56,57,57,57,58,59,60,60,61,61,62,62,63,64,65,66,67,67,68,69,70,70,71,72,72,73,74,75,76,76,77,78,78,79,80,81,82,82,83,84,85,86,87,88,89,90,91];
succ = [2,3,4,18,37,14,11,44,29,5,72,12,6,7,73,19,43,9,22,8,17,10,16,33,15,13,63,65,27,36,58,38,23,34,45,15,35,21,47,86,34,43,52,20,30,39,31,24,26,53,82,25,28,49,90,56,40,75,84,64,42,88,82,73,46,54,31,71,32,67,87,66,76,39,76,69,47,53,70,89,51,67,57,77,40,41,46,47,66,43,65,59,69,56,80,74,60,48,56,50,61,78,59,88,52,71,58,91,53,77,79,60,80,62,55,57,60,63,75,71,66,68,78,62,76,68,64,65,62,73,68,91,83,85,69,75,80,81,81,74,78,85,74,77,79,82,91,81,83,84,84,79,85,90,86,83,87,86,87,89,90,88,89,92,92,92];

nUnrels = 2810;
unpred = [2,2,2,2,2,2,2,2,2,2,2,2,2,2,2,2,2,2,2,2,2,2,2,2,2,2,2,2,2,2,2,2,2,2,2,2,2,2,2,2,2,2,2,2,2,3,3,3,3,3,3,3,3,3,3,3,3,3,3,3,3,3,3,3,3,3,3,3,3,3,3,3,3,3,3,3,3,3,3,3,3,3,3,3,3,3,3,3,3,3,3,3,3,3,3,3,3,3,3,3,3,3,3,3,3,3,3,4,4,4,4,4,4,4,4,4,4,4,4,4,4,5,5,5,5,5,5,5,5,5,5,5,5,5,5,5,6,6,6,6,6,6,6,6,6,6,6,6,6,6,6,6,6,6,6,6,6,6,6,6,6,6,6,6,6,6,6,6,6,6,6,6,6,6,6,6,6,6,6,6,6,6,6,6,6,6,6,6,6,6,6,6,6,7,7,7,7,7,7,7,7,7,7,7,7,7,7,7,7,7,7,7,7,7,7,7,8,8,8,8,8,8,8,8,8,8,8,8,8,8,8,8,8,8,8,8,8,8,8,8,8,8,8,8,8,8,9,9,9,9,9,9,9,9,9,9,9,9,9,9,9,9,9,9,9,9,9,9,9,9,9,9,9,9,9,9,9,9,9,9,9,9,9,9,9,9,9,9,9,9,9,9,9,9,9,9,10,10,10,10,10,10,10,10,10,10,10,10,10,10,10,10,10,10,10,10,10,10,10,10,10,10,10,10,10,10,10,10,10,10,10,10,10,10,10,10,10,10,10,10,10,10,10,10,11,11,11,11,11,11,11,11,11,11,11,11,11,11,11,11,11,11,11,11,11,11,11,11,11,11,11,11,11,11,11,11,11,11,11,11,11,11,11,11,11,11,11,11,11,11,11,11,11,11,11,11,11,11,11,11,11,11,11,11,11,11,11,11,12,12,12,12,12,12,12,12,12,12,12,12,12,12,12,12,12,12,12,12,12,12,12,12,12,12,12,12,12,12,12,12,12,12,12,12,12,12,12,12,12,12,12,12,12,12,12,12,12,12,12,12,12,12,12,12,12,12,13,13,13,13,13,13,13,13,13,13,13,13,13,13,13,13,13,13,13,13,13,13,13,13,13,13,13,13,13,13,13,13,13,13,13,13,13,13,13,13,13,13,13,13,13,13,13,13,14,14,14,14,14,14,14,14,14,14,14,14,14,14,14,14,14,14,14,14,14,14,14,14,14,14,14,14,14,14,14,14,14,14,14,14,14,14,14,14,14,14,14,14,14,14,14,14,14,14,15,15,15,15,15,15,15,15,15,15,15,15,15,15,15,15,15,15,15,15,15,15,15,15,15,15,15,15,15,15,15,15,15,15,15,15,15,15,15,15,15,15,15,15,15,15,15,15,15,15,15,15,15,15,15,15,15,15,15,15,15,15,15,15,15,15,15,15,15,15,15,15,15,15,16,16,16,16,16,16,16,16,16,16,16,16,16,16,16,16,16,16,16,16,16,16,16,16,16,16,16,16,16,16,16,16,16,16,16,16,16,16,16,16,16,16,16,16,16,16,17,17,17,17,17,17,17,17,17,17,17,17,17,17,17,17,17,17,17,17,17,17,17,17,17,17,17,17,17,17,17,17,17,17,17,17,17,17,17,17,17,17,18,18,18,18,18,18,18,18,18,18,18,18,18,18,18,18,18,18,18,18,18,18,18,18,18,18,18,18,18,18,18,18,18,18,18,18,18,18,18,18,18,19,19,19,19,19,19,19,19,19,19,19,19,19,19,19,19,19,19,19,19,19,19,19,19,19,19,19,19,19,19,19,19,19,19,19,19,19,19,19,19,19,19,19,19,19,19,19,19,19,19,19,19,19,20,20,20,20,20,20,20,20,20,20,20,20,20,20,20,20,20,20,20,20,20,20,20,20,20,20,20,20,20,20,20,20,20,20,20,20,20,20,20,20,20,20,20,20,20,20,20,20,20,20,20,20,20,20,20,20,20,20,20,20,20,20,21,21,21,21,21,21,21,21,21,21,21,21,21,21,21,21,21,21,21,21,21,21,21,21,21,21,21,21,21,21,21,21,21,21,21,21,21,21,21,21,21,21,21,21,21,21,21,21,21,21,21,21,21,21,21,21,21,21,21,21,21,21,22,22,22,22,22,22,22,22,22,22,22,22,22,22,22,22,22,22,22,22,22,22,22,22,22,22,22,22,22,22,22,22,22,22,22,22,22,22,22,22,22,22,22,22,22,22,22,22,22,22,22,22,22,22,22,23,23,23,23,23,23,23,23,23,23,23,23,23,23,23,23,23,23,23,23,23,23,23,23,23,23,23,23,23,23,23,23,23,23,23,23,23,23,23,23,23,23,23,23,23,23,23,23,23,23,23,23,23,23,23,23,23,23,23,23,23,23,24,24,24,24,24,24,24,24,24,24,24,24,24,24,24,24,24,24,24,24,24,24,24,24,24,24,24,24,24,24,24,24,24,24,24,24,24,24,24,24,24,24,24,24,24,24,24,24,24,24,24,24,24,24,24,24,24,24,24,24,24,24,24,24,24,25,25,25,25,25,25,25,25,25,25,25,25,25,25,25,25,25,25,25,25,25,25,25,25,25,25,25,25,25,25,25,25,25,25,25,25,25,25,25,25,25,25,25,25,25,25,25,25,25,25,25,25,25,25,25,25,25,25,26,26,26,26,26,26,26,26,26,26,26,26,26,26,26,26,26,26,26,26,26,26,26,26,26,26,26,26,26,26,26,26,26,26,26,26,26,26,26,26,26,26,26,26,26,26,26,26,26,26,26,26,26,26,26,27,27,27,27,27,27,27,27,27,27,27,27,27,27,27,27,27,27,27,27,27,27,27,27,27,27,27,27,27,27,27,27,27,27,27,27,27,27,27,27,27,27,27,27,27,27,27,27,27,27,27,27,27,27,27,27,27,27,27,27,27,27,28,28,28,28,28,28,28,28,28,28,28,28,28,28,28,28,28,28,28,28,28,28,28,28,28,28,28,28,28,28,28,28,28,28,28,28,28,28,28,28,28,28,28,28,28,28,28,28,28,28,28,28,28,28,28,28,29,29,29,29,29,29,29,29,29,29,29,29,29,29,29,29,29,29,29,29,29,29,29,29,29,29,29,29,29,29,29,29,29,29,29,29,29,29,29,29,29,29,29,29,29,29,29,29,29,29,29,29,29,30,30,30,30,30,30,30,30,30,30,30,30,30,30,30,30,30,30,30,30,30,30,30,30,30,30,30,30,30,30,30,30,31,31,31,31,31,31,31,31,31,31,31,31,31,31,31,31,31,31,31,31,31,31,31,31,31,31,31,31,31,31,31,31,31,31,31,31,31,31,31,31,31,31,31,31,31,31,31,31,31,32,32,32,32,32,32,32,32,32,32,32,32,32,32,32,32,32,32,32,32,32,32,32,32,32,32,32,32,32,32,32,32,32,32,32,32,32,32,32,32,32,32,32,32,32,32,32,32,32,32,32,33,33,33,33,33,33,33,33,33,33,33,33,33,33,33,33,33,33,33,33,33,33,33,33,33,33,33,33,34,34,34,34,34,34,34,34,34,34,34,34,34,34,34,34,34,34,34,34,34,34,34,34,34,34,34,34,34,34,34,34,34,34,34,34,35,35,35,35,35,35,35,35,35,35,35,35,35,35,35,35,35,35,35,35,35,35,35,35,35,35,35,35,35,35,35,35,35,35,35,35,35,35,35,35,35,35,35,35,35,35,35,36,36,36,36,36,36,36,36,36,36,36,36,36,36,36,36,36,36,36,36,36,36,36,36,36,36,36,36,36,36,36,36,36,36,36,36,36,36,36,36,36,36,37,37,37,37,37,37,37,37,37,37,37,37,37,37,37,37,37,37,37,37,37,37,37,37,37,37,37,37,37,37,37,37,37,37,37,37,37,37,37,37,38,38,38,38,38,38,38,38,38,38,38,38,38,38,38,38,38,38,38,38,38,38,38,38,38,38,38,38,38,38,38,38,38,38,38,38,38,39,39,39,39,39,39,39,39,39,39,39,39,39,39,39,39,39,39,39,39,39,39,39,39,39,39,40,40,40,40,40,40,40,40,40,40,40,40,40,40,40,40,40,40,40,40,40,40,40,40,40,40,40,40,40,40,40,40,40,40,40,40,40,40,40,40,40,40,40,40,40,40,41,41,41,41,41,41,41,41,41,41,41,41,41,41,41,41,41,41,41,41,41,41,41,41,41,41,41,41,41,41,41,41,41,41,41,41,41,41,41,42,42,42,42,42,42,42,42,42,42,42,42,42,42,42,42,42,42,42,42,42,42,42,42,42,42,42,42,42,42,42,42,42,42,42,42,42,42,42,42,43,43,43,43,43,43,43,43,43,43,43,43,43,43,43,43,43,43,43,43,43,43,43,43,43,43,43,43,43,43,43,43,43,43,43,43,43,43,44,44,44,44,44,44,44,44,44,44,44,44,44,44,44,44,44,44,44,44,44,44,44,44,44,44,44,44,44,44,44,44,44,44,44,44,44,44,44,44,44,44,44,44,44,45,45,45,45,45,45,45,45,45,45,45,45,45,45,45,45,45,45,45,45,45,45,45,45,45,45,45,45,45,45,45,46,46,46,46,46,46,46,46,46,46,46,46,46,46,46,46,46,46,46,46,46,46,46,46,46,46,46,46,46,46,46,46,46,46,46,46,46,46,46,47,47,47,47,47,47,47,47,47,47,47,47,47,47,47,47,47,47,47,47,47,47,47,47,47,47,47,48,48,48,48,48,48,48,48,48,48,48,48,48,48,48,48,48,48,48,48,48,48,48,48,48,48,48,48,48,48,48,48,48,48,48,49,49,49,49,49,49,49,49,49,49,49,49,49,49,49,49,49,49,49,49,49,49,49,49,49,49,49,49,49,49,49,49,49,50,50,50,50,50,50,50,50,50,50,50,50,50,50,50,50,50,50,50,50,50,50,50,50,50,50,50,50,50,50,50,51,51,51,51,51,51,51,51,51,51,51,51,51,51,51,51,51,51,51,51,51,51,51,51,51,51,51,51,51,51,52,52,52,52,52,52,52,52,52,52,52,52,52,52,52,52,52,52,52,52,52,52,52,52,52,52,52,52,52,52,52,52,53,53,53,53,53,53,53,53,53,53,53,53,53,53,53,53,53,53,53,53,53,53,53,53,53,53,53,53,53,53,54,54,54,54,54,54,54,54,54,54,54,54,54,54,54,55,55,55,55,55,55,55,55,55,55,55,55,55,55,55,55,55,56,56,56,56,56,56,56,56,56,56,56,56,56,56,56,56,56,56,56,56,56,56,56,56,56,56,56,56,56,56,57,57,57,57,57,57,57,57,57,57,57,57,57,57,57,57,57,57,57,57,57,58,58,58,58,58,58,58,58,58,58,58,58,58,58,58,58,58,58,58,58,58,58,58,58,59,59,59,59,59,59,59,59,59,59,59,59,59,59,59,59,59,59,59,59,59,59,59,59,59,59,59,60,60,60,60,60,60,60,60,60,60,60,60,60,60,60,60,60,60,60,60,60,60,60,60,60,61,61,61,61,61,61,61,61,61,61,61,61,61,61,61,61,61,61,61,61,62,62,62,62,62,62,62,62,62,62,62,62,62,62,62,62,62,62,62,62,62,63,63,63,63,63,63,63,63,63,63,63,63,63,63,63,63,63,63,63,63,63,63,63,63,63,63,63,64,64,64,64,64,64,64,64,64,64,64,64,64,64,64,64,64,64,64,64,64,64,64,64,65,65,65,65,65,65,65,65,65,65,65,65,65,65,65,65,65,65,65,65,65,65,65,65,66,66,66,66,66,66,66,66,66,66,66,66,66,66,66,66,66,66,66,66,66,67,67,67,67,67,67,67,67,67,67,67,67,67,67,67,67,67,67,67,67,68,68,68,68,68,68,68,68,68,68,68,68,68,68,68,68,68,68,68,68,69,69,69,69,69,69,69,69,69,69,69,69,69,69,69,69,69,69,69,70,70,70,70,70,70,70,70,70,71,71,71,71,71,71,71,71,71,71,71,71,71,71,71,71,71,71,72,72,72,72,72,72,72,72,72,73,73,73,73,73,73,73,73,73,73,73,73,73,73,73,74,74,74,74,74,74,74,74,74,74,75,75,75,75,75,75,75,75,75,75,75,75,75,75,75,76,76,76,76,76,76,76,76,76,76,76,77,77,77,77,77,77,77,77,77,77,78,78,78,78,78,78,78,79,79,79,79,79,79,79,79,79,79,80,80,80,80,80,80,80,80,80,80,81,81,81,81,81,81,81,81,82,82,82,83,83,83,83,83,83,84,84,84,84,85,85,85,85,85,86,86,86,86,87,87,88,88,89,89,90];
unsucc = [3,4,5,6,7,8,9,10,11,12,13,15,16,17,19,20,22,23,25,26,27,29,30,33,34,36,38,40,42,44,45,48,49,52,54,55,57,59,63,66,70,72,74,76,77,4,5,6,7,8,9,10,12,13,14,15,16,17,18,19,20,21,22,23,24,25,26,28,30,31,32,33,34,35,37,38,39,40,41,42,43,45,47,48,49,50,51,52,53,54,55,57,58,59,60,61,62,63,64,66,67,68,69,72,76,77,81,11,14,18,21,24,27,28,29,35,36,37,44,51,70,11,14,18,21,24,27,28,29,35,36,37,44,51,70,72,7,8,9,10,11,12,13,14,15,16,17,18,20,21,22,23,24,25,27,28,29,30,31,32,33,34,35,36,37,38,39,40,41,44,45,46,47,48,49,50,51,52,54,55,57,58,61,62,63,66,67,70,72,74,77,78,84,11,12,14,18,19,21,23,24,26,27,28,29,35,36,37,38,40,42,44,51,53,70,72,9,11,12,14,18,19,21,22,23,24,26,27,28,29,33,35,36,37,38,39,40,41,42,44,46,49,51,53,70,72,10,11,12,13,14,16,17,18,19,20,21,22,23,24,25,26,27,28,29,30,31,32,34,35,36,37,38,40,42,44,45,48,49,51,52,53,54,55,57,59,60,63,64,67,70,72,74,77,80,82,11,12,14,16,17,18,19,20,21,22,23,24,25,26,27,28,29,30,31,32,33,35,36,37,38,39,40,41,42,43,44,46,49,51,52,53,54,55,56,57,66,67,70,71,72,75,77,80,12,13,14,15,16,17,18,19,20,21,22,23,24,25,26,28,29,30,31,32,33,34,35,37,38,39,40,41,42,43,44,45,46,47,48,49,50,51,52,53,54,55,56,57,58,59,60,61,62,63,64,66,67,68,69,71,72,73,75,76,77,80,81,91,13,14,15,16,17,18,19,20,21,22,24,25,26,27,28,29,30,31,32,33,34,35,36,37,39,41,42,43,44,45,46,47,48,49,50,51,52,53,54,55,56,59,60,61,63,64,65,67,70,71,72,74,75,76,80,82,83,91,14,16,17,18,19,20,21,22,23,24,25,26,27,28,29,30,31,32,33,35,36,37,38,39,40,41,42,43,44,46,49,51,52,53,54,55,56,57,63,66,67,70,71,72,75,77,80,91,15,16,17,18,19,20,22,23,24,25,26,27,29,30,31,32,33,34,36,37,38,39,40,41,42,43,44,45,46,48,49,51,52,54,55,56,57,59,63,66,67,69,70,71,72,74,75,76,77,91,16,17,18,19,20,21,22,23,24,25,26,27,28,29,30,31,32,33,34,35,36,37,38,39,40,41,42,43,44,45,46,47,48,49,50,51,52,53,54,55,56,57,58,59,60,61,62,63,64,65,66,67,68,69,70,71,72,73,74,75,76,77,78,79,80,81,82,83,84,85,87,88,89,91,17,18,19,20,21,22,23,24,25,26,27,28,29,30,31,32,33,35,36,37,38,39,40,41,42,44,45,46,48,49,51,53,54,55,57,59,60,63,64,66,67,70,72,74,80,82,18,19,21,22,23,24,26,27,28,29,33,34,35,36,37,38,39,40,41,42,43,44,45,46,47,48,49,50,51,52,53,56,58,59,61,65,70,72,74,76,77,82,19,20,21,22,23,25,26,27,28,29,30,33,34,35,36,37,38,40,42,44,45,48,49,51,52,53,54,55,57,59,60,63,64,66,70,72,74,76,77,82,83,20,21,22,23,24,25,27,28,29,30,31,32,33,34,35,36,37,38,39,40,41,43,44,45,46,47,48,49,50,51,52,54,55,56,57,58,61,62,63,66,67,69,70,71,72,73,74,75,77,78,79,84,91,21,22,23,24,26,27,28,29,30,31,32,33,34,35,36,37,38,39,40,41,42,43,44,45,46,47,48,49,50,51,52,53,54,55,56,57,58,59,60,61,62,63,65,66,67,68,69,70,71,72,73,74,75,76,77,78,79,80,81,82,85,91,22,23,24,25,26,27,29,30,31,32,33,34,35,36,37,38,39,40,41,42,43,44,45,46,47,48,49,50,51,52,53,54,55,56,57,58,59,60,61,62,63,64,65,66,67,68,69,70,71,72,73,74,75,76,77,78,79,80,81,84,85,91,23,24,25,26,27,28,29,30,31,32,33,34,35,36,37,38,39,40,41,42,43,44,45,46,47,48,50,51,53,54,55,57,58,59,60,61,62,63,64,65,66,67,68,69,70,72,73,74,76,78,80,81,82,83,86,24,25,26,27,28,29,30,31,32,33,34,35,36,37,38,39,41,42,43,44,45,46,47,48,49,50,51,52,53,54,55,56,57,58,59,60,61,62,63,64,65,67,68,70,71,72,73,74,75,76,77,78,79,80,82,83,84,85,87,88,89,91,25,26,27,28,29,30,31,32,33,34,35,36,37,38,39,40,41,42,43,44,45,46,47,48,49,50,51,52,53,54,55,56,57,58,59,60,61,62,63,64,65,66,67,68,69,70,71,72,73,74,76,77,78,79,80,81,82,83,84,85,86,87,88,89,90,26,27,28,29,30,31,32,33,34,35,36,37,38,39,40,41,42,43,44,45,46,47,48,49,50,51,52,53,54,55,56,57,58,59,60,61,62,63,65,66,67,68,69,70,71,72,73,74,75,76,77,78,79,80,81,82,85,91,27,28,29,30,31,32,33,34,35,36,37,38,39,40,41,43,44,45,46,47,48,49,50,51,52,53,54,55,56,57,58,60,61,62,63,64,66,67,68,69,70,71,72,73,74,75,77,78,79,80,82,84,87,88,91,28,29,30,31,32,33,34,35,36,37,38,39,40,41,42,43,44,45,46,47,48,49,50,51,52,53,54,55,56,57,58,59,60,61,62,63,64,65,66,67,68,69,70,71,72,73,74,75,76,77,78,79,80,81,82,83,84,85,86,87,90,91,29,30,31,32,33,34,35,36,37,38,39,40,41,42,43,44,45,46,47,48,49,50,51,52,53,54,55,56,57,58,59,60,61,62,63,64,65,66,67,68,69,70,71,72,73,74,75,76,77,78,79,80,81,84,85,91,30,31,32,33,34,35,36,37,38,39,40,41,42,43,44,45,47,48,49,50,51,52,53,54,55,57,58,59,60,61,62,63,64,65,66,67,68,69,70,72,74,76,77,78,80,81,82,83,84,86,87,88,90,33,34,35,36,37,38,39,40,41,42,43,44,45,46,47,48,49,50,51,52,53,56,58,59,61,65,70,72,74,76,77,82,33,34,35,36,37,38,39,40,41,42,43,44,45,46,47,48,49,50,51,52,53,54,55,56,57,58,59,60,61,62,63,64,65,66,68,69,70,72,73,74,76,77,78,79,81,82,83,84,86,33,34,35,36,37,38,39,40,41,42,43,44,45,46,47,48,49,50,51,52,53,54,55,56,57,58,59,60,61,62,63,64,65,66,68,69,70,71,72,73,74,76,77,78,79,81,82,83,84,85,86,34,35,36,37,38,40,42,44,45,48,49,51,52,53,54,55,57,59,60,63,64,67,70,72,74,77,80,82,35,36,37,38,39,40,41,42,43,44,45,46,48,49,51,52,53,54,55,56,57,59,60,63,64,66,67,70,71,72,74,75,77,80,82,91,36,37,38,39,40,41,42,43,44,45,46,47,48,49,50,51,52,54,55,56,57,58,59,61,62,63,65,66,67,69,70,71,72,73,74,75,76,77,78,79,82,84,85,87,88,89,91,37,38,39,40,41,42,43,44,45,46,47,48,49,50,51,52,53,54,55,56,57,58,59,60,61,62,63,64,65,66,67,68,69,71,72,73,75,76,77,80,81,91,38,39,40,41,42,43,44,45,46,47,48,49,50,52,54,55,56,57,58,59,61,62,63,65,66,69,70,71,72,73,74,76,77,78,79,82,84,85,87,88,39,41,42,43,44,45,46,47,48,49,50,51,52,53,54,55,56,58,59,60,61,62,63,64,65,67,70,71,72,73,74,75,76,80,82,83,91,40,42,44,45,48,49,51,52,53,54,55,57,59,60,63,64,66,67,70,72,74,76,77,80,82,83,41,42,43,44,45,46,47,48,49,50,51,52,53,54,55,56,57,58,59,60,61,62,63,64,65,67,68,70,71,72,73,74,75,76,77,78,79,80,82,83,84,85,87,88,89,91,42,44,45,46,47,48,49,50,51,52,53,54,55,57,58,59,60,61,62,63,64,65,66,67,68,70,72,73,74,76,77,78,79,80,82,83,84,87,88,43,44,45,46,47,48,49,50,51,52,53,54,55,56,57,58,60,61,62,63,64,66,67,68,69,70,71,72,73,74,75,77,78,79,80,82,84,87,88,91,44,45,46,47,48,49,50,51,52,53,54,55,57,58,59,60,61,62,63,64,65,66,67,68,70,72,73,74,76,77,78,79,80,82,83,84,87,88,45,46,47,48,49,50,51,52,53,54,55,56,57,58,59,60,61,62,63,64,65,66,67,68,69,70,71,72,73,74,75,76,77,78,79,81,82,83,84,85,86,87,88,89,91,46,47,49,50,51,52,53,54,55,56,57,58,61,62,63,65,66,67,69,70,71,72,73,75,77,78,79,80,84,85,91,47,48,49,50,51,52,53,54,55,57,58,59,60,61,62,63,64,65,66,67,68,69,70,72,73,74,76,77,78,79,80,81,82,83,84,86,87,88,90,48,49,51,52,53,54,55,56,57,59,60,63,64,66,67,69,70,71,72,74,75,76,77,80,82,83,91,49,50,51,52,53,54,55,56,57,58,60,61,62,63,64,65,66,67,68,69,70,71,72,73,74,75,77,78,79,80,82,84,85,87,91,50,51,53,54,55,56,57,58,59,60,61,62,63,64,65,66,67,68,69,70,72,73,74,75,76,78,80,81,82,83,86,90,91,51,52,53,54,55,56,57,59,60,61,63,64,65,66,67,69,70,71,72,74,75,76,77,78,80,82,83,84,87,88,91,52,54,55,56,57,58,59,61,62,63,65,66,67,69,70,71,72,73,74,75,76,77,78,79,82,84,85,87,88,89,53,54,55,56,57,58,59,60,61,62,63,64,65,66,67,68,69,70,71,72,73,74,75,76,78,80,81,82,83,86,90,91,54,55,56,57,58,59,61,62,63,65,66,67,69,70,71,72,73,74,75,76,77,78,79,82,84,85,87,88,89,91,56,58,59,61,65,67,70,71,72,74,75,76,77,80,82,56,58,59,61,62,65,67,70,71,72,73,74,75,76,77,80,82,57,58,59,60,61,62,63,64,65,66,67,68,69,70,72,73,74,76,77,78,79,80,81,82,83,84,86,87,88,90,58,59,60,61,62,63,64,65,67,70,71,72,73,74,75,76,77,80,82,83,91,59,60,61,63,64,65,66,67,69,70,71,72,74,75,76,77,78,80,82,83,84,87,88,91,60,61,62,63,64,65,66,67,68,69,70,71,72,73,74,75,77,78,79,80,82,84,85,87,88,89,91,61,62,63,65,66,67,69,70,71,72,73,74,75,76,77,78,79,80,82,84,85,87,88,89,91,63,64,66,67,69,70,71,72,74,75,76,77,78,80,82,83,84,87,88,91,63,64,65,66,67,69,70,71,72,74,75,76,77,78,80,82,83,84,87,88,91,64,65,66,67,68,69,70,71,72,73,74,75,76,77,78,79,80,81,82,83,84,85,86,87,88,89,90,65,66,67,68,69,70,71,72,73,74,75,76,77,78,79,80,81,82,84,85,87,88,89,91,66,67,68,69,70,71,72,73,74,75,76,77,78,79,80,81,82,83,84,86,87,88,90,91,67,68,70,71,72,73,74,75,76,77,78,79,80,82,83,84,85,87,88,89,91,68,69,70,71,72,73,74,76,77,78,79,81,82,83,84,85,86,87,88,89,69,70,71,72,73,74,75,76,77,78,79,80,82,83,84,85,87,88,89,91,70,71,72,73,74,75,76,77,78,79,80,82,83,84,85,87,88,89,91,71,72,73,75,76,77,80,81,91,72,73,74,75,76,77,78,79,80,81,82,83,84,86,87,88,90,91,73,75,76,78,79,80,81,85,91,74,75,76,77,78,80,81,82,83,84,86,87,88,90,91,75,76,77,78,79,80,81,84,85,91,76,77,78,79,80,81,82,83,84,85,86,87,88,89,90,77,78,79,80,82,84,85,87,88,89,91,78,79,80,81,82,83,85,86,90,91,80,81,82,83,86,90,91,80,81,82,83,84,86,87,88,90,91,81,82,83,84,85,86,87,88,89,91,82,83,84,85,87,88,89,91,84,85,91,84,85,87,88,89,91,85,86,90,91,86,87,88,90,91,87,88,89,91,90,91,90,91,90,91,91];

USEFUL_RES = [{},
	{2,3,4,5,6,7,8,11},
	{1,2,3,4,5,6,7,8,11},
	{8},
	{1,2,3,4,5,6,7,8,9,10,12},
	{3,8,9,10},
	{2,3,4,5,6,7,8,9,10},
	{1,3,5,6,7,8},
	{1,2,3,4,5,6,7,8,11},
	{2,3,4,8,9,10,12},
	{1,2,3,4,5,6,7,8,9,10,12},
	{2,3,4,8,9,10},
	{3,9,10},
	{2,4,6,8,11},
	{2,4,6,8,11},
	{1,2,3,4,5,6,7,8,9,10,11},
	{3,9,10},
	{2,4,8},
	{2,3,4,8,9,10,12},
	{1,3,5,6,7},
	{1,2,3,4,5,6,7,8,9,10},
	{1,3,5,6,7,9,10},
	{3,9,10},
	{2,4,8},
	{2,4,6,8,11},
	{1,3,5,6,7},
	{2,3,4,5,6,7,8,9,10,12},
	{3,9,10,12},
	{1,2,3,4,5,6,7,8,11},
	{1,2,3,4,5,6,7,8,9,10,11},
	{3,9,10,12},
	{1,3,5,6,7,9,10,12},
	{1,3,5,6,7,8},
	{1,2,3,4,5,6,7,8,11},
	{1,3,5,6,7},
	{2,3,4,5,6,7,8,11},
	{3,5,6,7,9,10,12},
	{1,2,3,4,5,6,7,8,11},
	{2,4,8},
	{3,9,10},
	{1,3,5,6,7},
	{3,5,6,7,8},
	{2,3,4,5,6,7,8,9,10,11,12},
	{1,2,3,4,5,6,7,8},
	{1,2,3,4,5,6,7,8,9,10,11},
	{1,2,3,4,5,6,7,8,9,10},
	{2,3,4,5,6,7,8,9,10,11},
	{1,3,5,6,7,9,10},
	{2,3,4,5,6,7,8,9,10,12},
	{1,3,5,6,7,9,10,12},
	{1,2,3,4,5,6,7,8},
	{1,2,3,4,5,6,7,8,11},
	{2,4,8},
	{1,2,3,4,5,6,7,8,9,10,11,12},
	{1,2,3,4,5,6,7,8},
	{3,9,10,12},
	{2,3,4,6,8,9,10,11},
	{2,3,4,5,6,7,8,9,10,12},
	{3,5,6,7,8,9,10,12},
	{1,2,3,4,5,6,7,8,9,10},
	{1,2,3,4,5,6,7,8},
	{2,3,4,6,8,9,10,11,12},
	{1,2,3,4,5,6,7,8,11},
	{2,3,4,5,6,7,8,9,10,11},
	{1,2,3,4,5,6,7,8,9,10,11,12},
	{1,2,3,4,5,6,7,8},
	{3,9,10,12},
	{2,3,4,5,6,7,8,9,10,11},
	{1,2,3,4,5,6,7,8,9,10},
	{2,3,4,5,6,7,8},
	{2,4,8},
	{2,3,4,5,6,7,8},
	{2,3,4,5,6,7,8},
	{2,3,4,8,9,10},
	{1,2,3,4,5,6,7,8,9,10,12},
	{3,9,10},
	{3,5,6,7},
	{1,2,3,4,5,6,7,8,9,10,11,12},
	{2,3,4,5,6,7,8,9,10,11,12},
	{1,2,3,4,5,6,7,8,9,10,11},
	{2,3,4,6,8,9,10,11},
	{1,2,3,4,5,6,7,8,11},
	{1,3,5,6,7,9,10,12},
	{1,2,3,4,5,6,7,8,9,10,11},
	{2,3,4,8,9,10,12},
	{3,5,6,7,8,9,10},
	{3,5,6,7,9,10},
	{3,5,6,7,8},
	{3,9,10},
	{2,4,8},
	{2,3,4,8,9,10,12},
	{}];

POTENTIAL_ACT = [{3,5,8,9,11,16,20,21,22,26,29,30,32,33,34,35,38,41,44,45,46,48,50,51,52,54,55,60,61,63,65,66,69,75,78,80,82,83,84},
	{2,3,5,7,9,10,11,12,14,15,16,18,19,21,24,25,27,29,30,34,36,38,39,43,44,45,46,47,49,51,52,53,54,55,57,58,60,61,62,63,64,65,66,68,69,70,71,72,73,74,75,78,79,80,81,82,84,85,90,91},
	{2,3,5,6,7,8,9,10,11,12,13,16,17,19,20,21,22,23,26,27,28,29,30,31,32,33,34,35,36,37,38,40,41,42,43,44,45,46,47,48,49,50,51,52,54,55,56,57,58,59,60,61,62,63,64,65,66,67,68,69,70,72,73,74,75,76,77,78,79,80,81,82,83,84,85,86,87,88,89,91},
	{2,3,5,7,9,10,11,12,14,15,16,18,19,21,24,25,27,29,30,34,36,38,39,43,44,45,46,47,49,51,52,53,54,55,57,58,60,61,62,63,64,65,66,68,69,70,71,72,73,74,75,78,79,80,81,82,84,85,90,91},
	{2,3,5,7,8,9,11,16,20,21,22,26,27,29,30,32,33,34,35,36,37,38,41,42,43,44,45,46,47,48,49,50,51,52,54,55,58,59,60,61,63,64,65,66,68,69,70,72,73,75,77,78,79,80,82,83,84,86,87,88},
	{2,3,5,7,8,9,11,14,15,16,20,21,22,25,26,27,29,30,32,33,34,35,36,37,38,41,42,43,44,45,46,47,48,49,50,51,52,54,55,57,58,59,60,61,62,63,64,65,66,68,69,70,72,73,75,77,78,79,80,81,82,83,84,86,87,88},
	{2,3,5,7,8,9,11,16,20,21,22,26,27,29,30,32,33,34,35,36,37,38,41,42,43,44,45,46,47,48,49,50,51,52,54,55,58,59,60,61,63,64,65,66,68,69,70,72,73,75,77,78,79,80,82,83,84,86,87,88},
	{2,3,4,5,6,7,8,9,10,11,12,14,15,16,18,19,21,24,25,27,29,30,33,34,36,38,39,42,43,44,45,46,47,49,51,52,53,54,55,57,58,59,60,61,62,63,64,65,66,68,69,70,71,72,73,74,75,78,79,80,81,82,84,85,86,88,90,91},
	{5,6,7,10,11,12,13,16,17,19,21,22,23,27,28,30,31,32,37,40,43,45,46,47,48,49,50,54,56,57,58,59,60,62,64,65,67,68,69,74,75,76,78,79,80,81,83,84,85,86,87,89,91},
	{5,6,7,10,11,12,13,16,17,19,21,22,23,27,28,30,31,32,37,40,43,45,46,47,48,49,50,54,56,57,58,59,60,62,64,65,67,68,69,74,75,76,78,79,80,81,83,84,85,86,87,89,91},
	{2,3,9,14,15,16,25,29,30,34,36,38,43,45,47,52,54,57,62,63,64,65,68,78,79,80,81,82,84},
	{5,10,11,19,27,28,31,32,37,43,49,50,54,56,58,59,62,65,67,75,78,79,83,85,91}];
